p cnf 728 2370
a 2 3 4 5 6 7 8 9 13 18 20 22 23 24 27 29 31 32 34 36 38 39 41 43 45 47 49 51 53 56 57 64 66 70 74 76 78 82 89 94 99 102 103 110 111 115 119 120 123 127 131 133 135 137 139 140 144 148 150 154 158 163 165 169 171 172 176 178 181 182 0
e 1 10 11 12 14 15 16 17 19 21 25 26 28 30 33 35 37 40 42 44 46 48 50 52 54 55 58 59 60 61 62 63 65 67 68 69 71 72 73 75 77 79 80 81 83 84 85 86 87 88 90 91 92 93 95 96 97 98 100 101 104 105 106 107 108 109 112 113 114 116 117 118 121 122 124 125 126 128 129 130 132 134 136 138 141 142 143 145 146 147 149 151 152 153 155 156 157 159 160 161 162 164 166 167 168 170 173 174 175 177 179 180 183 184 185 186 187 188 189 190 191 192 193 194 195 196 197 198 199 200 201 202 203 204 205 206 207 208 209 210 211 212 213 214 215 216 217 218 219 220 221 222 223 224 225 226 227 228 229 230 231 232 233 234 235 236 237 238 239 240 241 242 243 244 245 246 247 248 249 250 251 252 253 254 255 256 257 258 259 260 261 262 263 264 265 266 267 268 269 270 271 272 273 274 275 276 277 278 279 280 281 282 283 284 285 286 287 288 289 290 291 292 293 294 295 296 297 298 299 300 301 302 303 304 305 306 307 308 309 310 311 312 313 314 315 316 317 318 319 320 321 322 323 324 325 326 327 328 329 330 331 332 333 334 335 336 337 338 339 340 341 342 343 344 345 346 347 348 349 350 351 352 353 354 355 356 357 358 359 360 361 362 363 364 365 366 367 368 369 370 371 372 373 374 375 376 377 378 379 380 381 382 383 384 385 386 387 388 389 390 391 392 393 394 395 396 397 398 399 400 401 402 403 404 405 406 407 408 409 410 411 412 413 414 415 416 417 418 419 420 421 422 423 424 425 426 427 428 429 430 431 432 433 434 435 436 437 438 439 440 441 442 443 444 445 446 447 448 449 450 451 452 453 454 455 456 457 458 459 460 461 462 463 464 465 466 467 468 469 470 471 472 473 474 475 476 477 478 479 480 481 482 483 484 485 486 487 488 489 490 491 492 493 494 495 496 497 498 499 500 501 502 503 504 505 506 507 508 509 510 511 512 513 514 515 516 517 518 519 520 521 522 523 524 525 526 527 528 529 530 531 532 533 534 535 536 537 538 539 540 541 542 543 544 545 546 547 548 549 550 551 552 553 554 555 556 557 558 559 560 561 562 563 564 565 566 567 568 569 570 571 572 573 574 575 576 577 578 579 580 581 582 583 584 585 586 587 588 589 590 591 592 593 594 595 596 597 598 599 600 601 602 603 604 605 606 607 608 609 610 611 612 613 614 615 616 617 618 619 620 621 622 623 624 625 626 627 628 629 630 631 632 633 634 635 636 637 638 639 640 641 642 643 644 645 646 647 648 649 650 651 652 653 654 655 656 657 658 659 660 661 662 663 664 665 666 667 668 669 670 671 672 673 674 675 676 677 678 679 680 681 682 683 684 685 686 687 688 689 690 691 692 693 694 695 696 697 698 699 700 701 702 703 704 705 706 707 708 709 710 711 712 713 714 715 716 717 718 719 720 721 722 723 724 725 726 727 728 0
1 0
8 -10 0
9 -10 0
-8 -9 10 0
8 -11 0
-9 -11 0
-8 9 11 0
8 12 0
-10 12 0
-11 12 0
-8 10 11 -12 0
-13 14 0
13 14 0
7 -15 0
12 -15 0
14 -15 0
-7 -12 -14 15 0
-7 -16 0
12 -16 0
7 -12 16 0
-15 17 0
-16 17 0
15 16 -17 0
-18 19 0
18 19 0
-20 21 0
20 21 0
23 -25 0
-24 -25 0
-23 24 25 0
23 26 0
-25 26 0
-23 25 -26 0
-27 28 0
27 28 0
28 -30 0
29 -30 0
-28 -29 30 0
-32 33 0
32 33 0
33 -35 0
-34 -35 0
-33 34 35 0
33 -37 0
34 -37 0
36 -37 0
-33 -34 -36 37 0
33 -40 0
34 -40 0
-36 -40 0
38 -40 0
39 -40 0
-33 -34 36 -38 -39 40 0
33 -42 0
34 -42 0
-36 -42 0
38 -42 0
-39 -42 0
-41 -42 0
-33 -34 36 -38 39 41 42 0
33 -44 0
34 -44 0
-36 -44 0
-38 -44 0
-43 -44 0
-33 -34 36 38 43 44 0
33 -46 0
34 -46 0
-36 -46 0
-38 -46 0
43 -46 0
45 -46 0
-33 -34 36 38 -43 -45 46 0
33 -48 0
34 -48 0
-36 -48 0
38 -48 0
-39 -48 0
41 -48 0
47 -48 0
-33 -34 36 -38 39 -41 -47 48 0
33 -50 0
34 -50 0
-36 -50 0
38 -50 0
-39 -50 0
41 -50 0
-47 -50 0
49 -50 0
-33 -34 36 -38 39 -41 47 -49 50 0
-51 52 0
51 52 0
33 -54 0
34 -54 0
-36 -54 0
-38 -54 0
43 -54 0
-45 -54 0
52 -54 0
53 -54 0
-33 -34 36 38 -43 45 -52 -53 54 0
33 -55 0
34 -55 0
-36 -55 0
-38 -55 0
43 -55 0
-45 -55 0
52 -55 0
-53 -55 0
-33 -34 36 38 -43 45 -52 53 55 0
56 -58 0
57 -58 0
-56 -57 58 0
56 -59 0
-57 -59 0
-56 57 59 0
56 60 0
-58 60 0
-59 60 0
-56 58 59 -60 0
33 -61 0
34 -61 0
-36 -61 0
38 -61 0
-39 -61 0
41 -61 0
-47 -61 0
-49 -61 0
60 -61 0
-33 -34 36 -38 39 -41 47 49 -60 61 0
-35 62 0
-37 62 0
-40 62 0
-42 62 0
-44 62 0
-46 62 0
-48 62 0
-50 62 0
-54 62 0
-55 62 0
-61 62 0
35 37 40 42 44 46 48 50 54 55 61 -62 0
28 -63 0
-29 -63 0
-31 -63 0
62 -63 0
-28 29 31 -62 63 0
28 -65 0
-29 -65 0
31 -65 0
-64 -65 0
-28 29 -31 64 65 0
28 -67 0
-29 -67 0
31 -67 0
64 -67 0
-66 -67 0
-28 29 -31 -64 66 67 0
28 -68 0
-29 -68 0
31 -68 0
64 -68 0
66 -68 0
-28 29 -31 -64 -66 68 0
-63 69 0
-65 69 0
-67 69 0
-68 69 0
63 65 67 68 -69 0
69 -71 0
70 -71 0
-69 -70 71 0
69 -72 0
-70 -72 0
-69 70 72 0
-30 73 0
-71 73 0
-72 73 0
30 71 72 -73 0
-74 75 0
74 75 0
22 -77 0
26 -77 0
73 -77 0
75 -77 0
76 -77 0
-22 -26 -73 -75 -76 77 0
-78 79 0
78 79 0
22 -80 0
26 -80 0
73 -80 0
75 -80 0
-76 -80 0
79 -80 0
-22 -26 -73 -75 76 -79 80 0
-77 81 0
-80 81 0
77 80 -81 0
81 -83 0
82 -83 0
-81 -82 83 0
81 -84 0
-82 -84 0
-81 82 84 0
22 85 0
-83 85 0
-84 85 0
-22 83 84 -85 0
6 -86 0
17 -86 0
19 -86 0
21 -86 0
85 -86 0
-6 -17 -19 -21 -85 86 0
-6 -87 0
17 -87 0
19 -87 0
21 -87 0
6 -17 -19 -21 87 0
-86 88 0
-87 88 0
86 87 -88 0
89 90 0
-89 90 0
5 -91 0
88 -91 0
90 -91 0
-5 -88 -90 91 0
-5 -92 0
88 -92 0
5 -88 92 0
-91 93 0
-92 93 0
91 92 -93 0
94 95 0
-94 95 0
4 -96 0
93 -96 0
95 -96 0
-4 -93 -95 96 0
-4 -97 0
93 -97 0
4 -93 97 0
-96 98 0
-97 98 0
96 97 -98 0
99 100 0
-99 100 0
3 -101 0
98 -101 0
100 -101 0
-3 -98 -100 101 0
103 104 0
-103 104 0
102 -105 0
98 -105 0
104 -105 0
-102 -98 -104 105 0
-102 -106 0
98 -106 0
102 -98 106 0
-105 107 0
-106 107 0
105 106 -107 0
-3 -108 0
107 -108 0
3 -107 108 0
-101 109 0
-108 109 0
101 108 -109 0
110 -112 0
111 -112 0
-110 -111 112 0
110 -113 0
-111 -113 0
-110 111 113 0
-112 114 0
-113 114 0
112 113 -114 0
114 -116 0
115 -116 0
-114 -115 116 0
114 -117 0
-115 -117 0
-114 115 117 0
-116 118 0
-117 118 0
116 117 -118 0
118 -121 0
-119 -121 0
120 -121 0
-118 119 -120 121 0
118 -122 0
-119 -122 0
-120 -122 0
-118 119 120 122 0
118 -124 0
119 -124 0
123 -124 0
-118 -119 -123 124 0
118 -125 0
119 -125 0
-123 -125 0
-118 -119 123 125 0
-121 126 0
-122 126 0
-124 126 0
-125 126 0
121 122 124 125 -126 0
126 -128 0
127 -128 0
-126 -127 128 0
126 -129 0
-127 -129 0
-126 127 129 0
-128 130 0
-129 130 0
128 129 -130 0
130 -132 0
131 -132 0
-130 -131 132 0
130 -134 0
-131 -134 0
133 -134 0
-130 131 -133 134 0
130 -136 0
-131 -136 0
-133 -136 0
135 -136 0
-130 131 133 -135 136 0
130 -138 0
-131 -138 0
-133 -138 0
-135 -138 0
137 -138 0
-130 131 133 135 -137 138 0
130 -141 0
-131 -141 0
-133 -141 0
-135 -141 0
-137 -141 0
139 -141 0
140 -141 0
-130 131 133 135 137 -139 -140 141 0
130 -142 0
-131 -142 0
-133 -142 0
-135 -142 0
-137 -142 0
139 -142 0
-140 -142 0
-130 131 133 135 137 -139 140 142 0
-141 143 0
-142 143 0
141 142 -143 0
143 -145 0
144 -145 0
-143 -144 145 0
143 -146 0
-144 -146 0
-143 144 146 0
-145 147 0
-146 147 0
145 146 -147 0
147 -149 0
148 -149 0
-147 -148 149 0
130 -151 0
-131 -151 0
-133 -151 0
-135 -151 0
-137 -151 0
-139 -151 0
150 -151 0
-130 131 133 135 137 139 -150 151 0
130 -152 0
-131 -152 0
-133 -152 0
-135 -152 0
-137 -152 0
-139 -152 0
-150 -152 0
-130 131 133 135 137 139 150 152 0
-151 153 0
-152 153 0
151 152 -153 0
153 -155 0
154 -155 0
-153 -154 155 0
153 -156 0
-154 -156 0
-153 154 156 0
-155 157 0
-156 157 0
155 156 -157 0
157 -159 0
158 -159 0
-157 -158 159 0
147 -160 0
-148 -160 0
-147 148 160 0
157 -161 0
-158 -161 0
-157 158 161 0
-149 162 0
-159 162 0
-160 162 0
-161 162 0
149 159 160 161 -162 0
162 -164 0
-163 -164 0
-162 163 164 0
162 -166 0
163 -166 0
165 -166 0
-162 -163 -165 166 0
162 -167 0
163 -167 0
-165 -167 0
-162 -163 165 167 0
110 168 0
-132 168 0
-134 168 0
-136 168 0
-138 168 0
-164 168 0
-166 168 0
-167 168 0
-110 132 134 136 138 164 166 167 -168 0
-169 170 0
169 170 0
-172 173 0
172 173 0
171 -174 0
173 -174 0
-171 -173 174 0
171 175 0
-174 175 0
-171 174 -175 0
2 -177 0
109 -177 0
168 -177 0
170 -177 0
175 -177 0
176 -177 0
-2 -109 -168 -170 -175 -176 177 0
-2 -179 0
109 -179 0
168 -179 0
170 -179 0
175 -179 0
178 -179 0
2 -109 -168 -170 -175 -178 179 0
-177 180 0
-179 180 0
177 179 -180 0
-181 -183 0
182 -183 0
181 -182 183 0
-181 -184 0
-182 -184 0
181 182 184 0
-181 185 0
-183 185 0
-184 185 0
181 183 184 -185 0
180 -186 0
185 -186 0
-180 -185 186 0
-13 187 0
13 187 0
7 -188 0
187 -188 0
-7 -187 188 0
-188 189 0
7 189 0
188 -7 -189 0
189 -190 0
-22 -190 0
-189 22 190 0
189 -191 0
28 -191 0
29 -191 0
-189 -28 -29 191 0
189 -192 0
28 -192 0
-29 -192 0
31 -192 0
64 -192 0
-66 -192 0
-189 -28 29 -31 -64 66 192 0
189 -193 0
28 -193 0
-29 -193 0
31 -193 0
64 -193 0
66 -193 0
-189 -28 29 -31 -64 -66 193 0
189 -194 0
28 -194 0
-29 -194 0
31 -194 0
-64 -194 0
-189 -28 29 -31 64 194 0
189 -195 0
32 -195 0
-189 -32 195 0
189 -196 0
-32 -196 0
-189 32 196 0
-195 197 0
-196 197 0
195 196 -197 0
-35 198 0
-37 198 0
-40 198 0
-42 198 0
-44 198 0
-46 198 0
-48 198 0
-50 198 0
35 37 40 42 44 46 48 50 -198 0
197 -199 0
198 -199 0
-197 -198 199 0
197 -200 0
33 -200 0
34 -200 0
-36 -200 0
38 -200 0
-39 -200 0
41 -200 0
-47 -200 0
-49 -200 0
60 -200 0
-197 -33 -34 36 -38 39 -41 47 49 -60 200 0
-54 201 0
-55 201 0
54 55 -201 0
197 -202 0
201 -202 0
-197 -201 202 0
-199 203 0
-200 203 0
-202 203 0
199 200 202 -203 0
203 -204 0
28 -204 0
-29 -204 0
-31 -204 0
62 -204 0
-203 -28 29 31 -62 204 0
-192 205 0
-193 205 0
-194 205 0
-204 205 0
192 193 194 204 -205 0
205 -206 0
69 -206 0
70 -206 0
-205 -69 -70 206 0
205 -207 0
69 -207 0
-70 -207 0
-205 -69 70 207 0
-191 208 0
-206 208 0
-207 208 0
191 206 207 -208 0
208 -209 0
22 -209 0
26 -209 0
73 -209 0
75 -209 0
76 -209 0
-208 -22 -26 -73 -75 -76 209 0
208 -210 0
22 -210 0
26 -210 0
73 -210 0
75 -210 0
-76 -210 0
79 -210 0
-208 -22 -26 -73 -75 76 -79 210 0
-209 211 0
-210 211 0
209 210 -211 0
-83 212 0
-84 212 0
83 84 -212 0
211 -213 0
212 -213 0
-211 -212 213 0
-190 214 0
-213 214 0
190 213 -214 0
6 -215 0
214 -215 0
-6 -214 215 0
-6 -216 0
189 -216 0
6 -189 216 0
-215 217 0
-216 217 0
215 216 -217 0
217 -218 0
-89 -218 0
-217 89 218 0
217 -219 0
89 -219 0
-217 -89 219 0
-218 220 0
-219 220 0
218 219 -220 0
5 -221 0
220 -221 0
-5 -220 221 0
-5 -222 0
217 -222 0
5 -217 222 0
-221 223 0
-222 223 0
221 222 -223 0
223 -224 0
-94 -224 0
-223 94 224 0
223 -225 0
94 -225 0
-223 -94 225 0
-224 226 0
-225 226 0
224 225 -226 0
4 -227 0
226 -227 0
-4 -226 227 0
-4 -228 0
223 -228 0
4 -223 228 0
-227 229 0
-228 229 0
227 228 -229 0
229 -230 0
-99 -230 0
-229 99 230 0
229 -231 0
99 -231 0
-229 -99 231 0
-230 232 0
-231 232 0
230 231 -232 0
3 -233 0
232 -233 0
-3 -232 233 0
229 -234 0
-103 -234 0
-229 103 234 0
229 -235 0
103 -235 0
-229 -103 235 0
-234 236 0
-235 236 0
234 235 -236 0
102 -237 0
236 -237 0
-102 -236 237 0
-102 -238 0
229 -238 0
102 -229 238 0
-237 239 0
-238 239 0
237 238 -239 0
-3 -240 0
239 -240 0
3 -239 240 0
-233 241 0
-240 241 0
233 240 -241 0
241 -242 0
-110 -242 0
-241 110 242 0
241 -243 0
110 -243 0
111 -243 0
-241 -110 -111 243 0
241 -244 0
110 -244 0
-111 -244 0
-241 -110 111 244 0
-243 245 0
-244 245 0
243 244 -245 0
245 -246 0
114 -246 0
115 -246 0
-245 -114 -115 246 0
245 -247 0
114 -247 0
-115 -247 0
-245 -114 115 247 0
-246 248 0
-247 248 0
246 247 -248 0
248 -249 0
126 -249 0
127 -249 0
-248 -126 -127 249 0
248 -250 0
126 -250 0
-127 -250 0
-248 -126 127 250 0
-249 251 0
-250 251 0
249 250 -251 0
-132 252 0
-134 252 0
-136 252 0
-138 252 0
132 134 136 138 -252 0
251 -253 0
252 -253 0
-251 -252 253 0
251 -254 0
130 -254 0
-131 -254 0
-133 -254 0
-135 -254 0
-137 -254 0
-139 -254 0
150 -254 0
-251 -130 131 133 135 137 139 -150 254 0
251 -255 0
130 -255 0
-131 -255 0
-133 -255 0
-135 -255 0
-137 -255 0
-139 -255 0
-150 -255 0
-251 -130 131 133 135 137 139 150 255 0
-254 256 0
-255 256 0
254 255 -256 0
256 -257 0
153 -257 0
154 -257 0
-256 -153 -154 257 0
256 -258 0
153 -258 0
-154 -258 0
-256 -153 154 258 0
-257 259 0
-258 259 0
257 258 -259 0
259 -260 0
157 -260 0
158 -260 0
-259 -157 -158 260 0
259 -261 0
157 -261 0
-158 -261 0
-259 -157 158 261 0
251 -262 0
130 -262 0
-131 -262 0
-133 -262 0
-135 -262 0
-137 -262 0
139 -262 0
140 -262 0
-251 -130 131 133 135 137 -139 -140 262 0
251 -263 0
130 -263 0
-131 -263 0
-133 -263 0
-135 -263 0
-137 -263 0
139 -263 0
-140 -263 0
-251 -130 131 133 135 137 -139 140 263 0
-262 264 0
-263 264 0
262 263 -264 0
264 -265 0
143 -265 0
144 -265 0
-264 -143 -144 265 0
264 -266 0
143 -266 0
-144 -266 0
-264 -143 144 266 0
-265 267 0
-266 267 0
265 266 -267 0
267 -268 0
147 -268 0
148 -268 0
-267 -147 -148 268 0
267 -269 0
147 -269 0
-148 -269 0
-267 -147 148 269 0
-260 270 0
-261 270 0
-268 270 0
-269 270 0
260 261 268 269 -270 0
-166 271 0
-167 271 0
166 167 -271 0
-164 272 0
-271 272 0
164 271 -272 0
270 -273 0
272 -273 0
-270 -272 273 0
-242 274 0
-253 274 0
-273 274 0
242 253 273 -274 0
274 -275 0
171 -275 0
173 -275 0
-274 -171 -173 275 0
274 -276 0
-171 -276 0
-274 171 276 0
-275 277 0
-276 277 0
275 276 -277 0
277 -278 0
181 -278 0
-277 -181 278 0
-183 279 0
-184 279 0
183 184 -279 0
277 -280 0
279 -280 0
-277 -279 280 0
-278 281 0
-280 281 0
278 280 -281 0
-13 282 0
13 282 0
7 -283 0
282 -283 0
-7 -282 283 0
-283 284 0
7 284 0
283 -7 -284 0
284 -285 0
-22 -285 0
-284 22 285 0
284 -286 0
28 -286 0
29 -286 0
-284 -28 -29 286 0
284 -287 0
28 -287 0
-29 -287 0
31 -287 0
64 -287 0
-66 -287 0
-284 -28 29 -31 -64 66 287 0
284 -288 0
28 -288 0
-29 -288 0
31 -288 0
64 -288 0
66 -288 0
-284 -28 29 -31 -64 -66 288 0
284 -289 0
28 -289 0
-29 -289 0
31 -289 0
-64 -289 0
-284 -28 29 -31 64 289 0
284 -290 0
32 -290 0
-284 -32 290 0
284 -291 0
-32 -291 0
-284 32 291 0
-290 292 0
-291 292 0
290 291 -292 0
-35 293 0
-37 293 0
-40 293 0
-42 293 0
-44 293 0
-46 293 0
-48 293 0
-50 293 0
35 37 40 42 44 46 48 50 -293 0
292 -294 0
293 -294 0
-292 -293 294 0
292 -295 0
33 -295 0
34 -295 0
-36 -295 0
38 -295 0
-39 -295 0
41 -295 0
-47 -295 0
-49 -295 0
60 -295 0
-292 -33 -34 36 -38 39 -41 47 49 -60 295 0
292 -296 0
201 -296 0
-292 -201 296 0
-294 297 0
-295 297 0
-296 297 0
294 295 296 -297 0
297 -298 0
28 -298 0
-29 -298 0
-31 -298 0
62 -298 0
-297 -28 29 31 -62 298 0
-287 299 0
-288 299 0
-289 299 0
-298 299 0
287 288 289 298 -299 0
299 -300 0
69 -300 0
70 -300 0
-299 -69 -70 300 0
299 -301 0
69 -301 0
-70 -301 0
-299 -69 70 301 0
-286 302 0
-300 302 0
-301 302 0
286 300 301 -302 0
302 -303 0
22 -303 0
26 -303 0
73 -303 0
75 -303 0
76 -303 0
-302 -22 -26 -73 -75 -76 303 0
302 -304 0
22 -304 0
26 -304 0
73 -304 0
75 -304 0
-76 -304 0
79 -304 0
-302 -22 -26 -73 -75 76 -79 304 0
-303 305 0
-304 305 0
303 304 -305 0
305 -306 0
212 -306 0
-305 -212 306 0
-285 307 0
-306 307 0
285 306 -307 0
6 -308 0
307 -308 0
-6 -307 308 0
-6 -309 0
284 -309 0
6 -284 309 0
-308 310 0
-309 310 0
308 309 -310 0
310 -311 0
-89 -311 0
-310 89 311 0
310 -312 0
89 -312 0
-310 -89 312 0
-311 313 0
-312 313 0
311 312 -313 0
5 -314 0
313 -314 0
-5 -313 314 0
-5 -315 0
310 -315 0
5 -310 315 0
-314 316 0
-315 316 0
314 315 -316 0
316 -317 0
-94 -317 0
-316 94 317 0
316 -318 0
94 -318 0
-316 -94 318 0
-317 319 0
-318 319 0
317 318 -319 0
4 -320 0
319 -320 0
-4 -319 320 0
-4 -321 0
316 -321 0
4 -316 321 0
-320 322 0
-321 322 0
320 321 -322 0
322 -323 0
-99 -323 0
-322 99 323 0
322 -324 0
99 -324 0
-322 -99 324 0
-323 325 0
-324 325 0
323 324 -325 0
3 -326 0
325 -326 0
-3 -325 326 0
322 -327 0
-103 -327 0
-322 103 327 0
322 -328 0
103 -328 0
-322 -103 328 0
-327 329 0
-328 329 0
327 328 -329 0
102 -330 0
329 -330 0
-102 -329 330 0
-102 -331 0
322 -331 0
102 -322 331 0
-330 332 0
-331 332 0
330 331 -332 0
-3 -333 0
332 -333 0
3 -332 333 0
-326 334 0
-333 334 0
326 333 -334 0
334 -335 0
-110 -335 0
-334 110 335 0
334 -336 0
110 -336 0
111 -336 0
-334 -110 -111 336 0
334 -337 0
110 -337 0
-111 -337 0
-334 -110 111 337 0
-336 338 0
-337 338 0
336 337 -338 0
338 -339 0
114 -339 0
115 -339 0
-338 -114 -115 339 0
338 -340 0
114 -340 0
-115 -340 0
-338 -114 115 340 0
-339 341 0
-340 341 0
339 340 -341 0
341 -342 0
126 -342 0
127 -342 0
-341 -126 -127 342 0
341 -343 0
126 -343 0
-127 -343 0
-341 -126 127 343 0
-342 344 0
-343 344 0
342 343 -344 0
-132 345 0
-134 345 0
-136 345 0
-138 345 0
132 134 136 138 -345 0
344 -346 0
345 -346 0
-344 -345 346 0
344 -347 0
130 -347 0
-131 -347 0
-133 -347 0
-135 -347 0
-137 -347 0
-139 -347 0
150 -347 0
-344 -130 131 133 135 137 139 -150 347 0
344 -348 0
130 -348 0
-131 -348 0
-133 -348 0
-135 -348 0
-137 -348 0
-139 -348 0
-150 -348 0
-344 -130 131 133 135 137 139 150 348 0
-347 349 0
-348 349 0
347 348 -349 0
349 -350 0
153 -350 0
154 -350 0
-349 -153 -154 350 0
349 -351 0
153 -351 0
-154 -351 0
-349 -153 154 351 0
-350 352 0
-351 352 0
350 351 -352 0
352 -353 0
157 -353 0
158 -353 0
-352 -157 -158 353 0
352 -354 0
157 -354 0
-158 -354 0
-352 -157 158 354 0
344 -355 0
130 -355 0
-131 -355 0
-133 -355 0
-135 -355 0
-137 -355 0
139 -355 0
140 -355 0
-344 -130 131 133 135 137 -139 -140 355 0
344 -356 0
130 -356 0
-131 -356 0
-133 -356 0
-135 -356 0
-137 -356 0
139 -356 0
-140 -356 0
-344 -130 131 133 135 137 -139 140 356 0
-355 357 0
-356 357 0
355 356 -357 0
357 -358 0
143 -358 0
144 -358 0
-357 -143 -144 358 0
357 -359 0
143 -359 0
-144 -359 0
-357 -143 144 359 0
-358 360 0
-359 360 0
358 359 -360 0
360 -361 0
147 -361 0
148 -361 0
-360 -147 -148 361 0
360 -362 0
147 -362 0
-148 -362 0
-360 -147 148 362 0
-353 363 0
-354 363 0
-361 363 0
-362 363 0
353 354 361 362 -363 0
-164 364 0
-271 364 0
164 271 -364 0
363 -365 0
364 -365 0
-363 -364 365 0
-335 366 0
-346 366 0
-365 366 0
335 346 365 -366 0
366 -367 0
171 -367 0
173 -367 0
-366 -171 -173 367 0
366 -368 0
-171 -368 0
-366 171 368 0
-367 369 0
-368 369 0
367 368 -369 0
369 -370 0
181 -370 0
-369 -181 370 0
369 -371 0
279 -371 0
-369 -279 371 0
-370 372 0
-371 372 0
370 371 -372 0
378 -380 0
379 -380 0
-378 -379 380 0
378 -381 0
-379 -381 0
-378 379 381 0
378 382 0
-380 382 0
-381 382 0
-378 380 381 -382 0
-383 384 0
383 384 0
377 -385 0
382 -385 0
384 -385 0
-377 -382 -384 385 0
-377 -386 0
382 -386 0
377 -382 386 0
-385 387 0
-386 387 0
385 386 -387 0
-388 389 0
388 389 0
-390 391 0
390 391 0
393 -395 0
-394 -395 0
-393 394 395 0
393 396 0
-395 396 0
-393 395 -396 0
-397 398 0
397 398 0
398 -400 0
399 -400 0
-398 -399 400 0
-402 403 0
402 403 0
403 -405 0
-404 -405 0
-403 404 405 0
403 -407 0
404 -407 0
406 -407 0
-403 -404 -406 407 0
403 -410 0
404 -410 0
-406 -410 0
408 -410 0
409 -410 0
-403 -404 406 -408 -409 410 0
403 -412 0
404 -412 0
-406 -412 0
408 -412 0
-409 -412 0
-411 -412 0
-403 -404 406 -408 409 411 412 0
403 -414 0
404 -414 0
-406 -414 0
-408 -414 0
-413 -414 0
-403 -404 406 408 413 414 0
403 -416 0
404 -416 0
-406 -416 0
-408 -416 0
413 -416 0
415 -416 0
-403 -404 406 408 -413 -415 416 0
403 -418 0
404 -418 0
-406 -418 0
408 -418 0
-409 -418 0
411 -418 0
417 -418 0
-403 -404 406 -408 409 -411 -417 418 0
403 -420 0
404 -420 0
-406 -420 0
408 -420 0
-409 -420 0
411 -420 0
-417 -420 0
419 -420 0
-403 -404 406 -408 409 -411 417 -419 420 0
-421 422 0
421 422 0
403 -424 0
404 -424 0
-406 -424 0
-408 -424 0
413 -424 0
-415 -424 0
422 -424 0
423 -424 0
-403 -404 406 408 -413 415 -422 -423 424 0
403 -425 0
404 -425 0
-406 -425 0
-408 -425 0
413 -425 0
-415 -425 0
422 -425 0
-423 -425 0
-403 -404 406 408 -413 415 -422 423 425 0
426 -428 0
427 -428 0
-426 -427 428 0
426 -429 0
-427 -429 0
-426 427 429 0
426 430 0
-428 430 0
-429 430 0
-426 428 429 -430 0
403 -431 0
404 -431 0
-406 -431 0
408 -431 0
-409 -431 0
411 -431 0
-417 -431 0
-419 -431 0
430 -431 0
-403 -404 406 -408 409 -411 417 419 -430 431 0
-405 432 0
-407 432 0
-410 432 0
-412 432 0
-414 432 0
-416 432 0
-418 432 0
-420 432 0
-424 432 0
-425 432 0
-431 432 0
405 407 410 412 414 416 418 420 424 425 431 -432 0
398 -433 0
-399 -433 0
-401 -433 0
432 -433 0
-398 399 401 -432 433 0
398 -435 0
-399 -435 0
401 -435 0
-434 -435 0
-398 399 -401 434 435 0
398 -437 0
-399 -437 0
401 -437 0
434 -437 0
-436 -437 0
-398 399 -401 -434 436 437 0
398 -438 0
-399 -438 0
401 -438 0
434 -438 0
436 -438 0
-398 399 -401 -434 -436 438 0
-433 439 0
-435 439 0
-437 439 0
-438 439 0
433 435 437 438 -439 0
439 -441 0
440 -441 0
-439 -440 441 0
439 -442 0
-440 -442 0
-439 440 442 0
-400 443 0
-441 443 0
-442 443 0
400 441 442 -443 0
-444 445 0
444 445 0
392 -447 0
396 -447 0
443 -447 0
445 -447 0
446 -447 0
-392 -396 -443 -445 -446 447 0
-448 449 0
448 449 0
392 -450 0
396 -450 0
443 -450 0
445 -450 0
-446 -450 0
449 -450 0
-392 -396 -443 -445 446 -449 450 0
-447 451 0
-450 451 0
447 450 -451 0
451 -453 0
452 -453 0
-451 -452 453 0
451 -454 0
-452 -454 0
-451 452 454 0
392 455 0
-453 455 0
-454 455 0
-392 453 454 -455 0
376 -456 0
387 -456 0
389 -456 0
391 -456 0
455 -456 0
-376 -387 -389 -391 -455 456 0
-376 -457 0
387 -457 0
389 -457 0
391 -457 0
376 -387 -389 -391 457 0
-456 458 0
-457 458 0
456 457 -458 0
459 460 0
-459 460 0
375 -461 0
458 -461 0
460 -461 0
-375 -458 -460 461 0
-375 -462 0
458 -462 0
375 -458 462 0
-461 463 0
-462 463 0
461 462 -463 0
464 465 0
-464 465 0
374 -466 0
463 -466 0
465 -466 0
-374 -463 -465 466 0
-374 -467 0
463 -467 0
374 -463 467 0
-466 468 0
-467 468 0
466 467 -468 0
469 470 0
-469 470 0
373 -471 0
468 -471 0
470 -471 0
-373 -468 -470 471 0
473 474 0
-473 474 0
472 -475 0
468 -475 0
474 -475 0
-472 -468 -474 475 0
-472 -476 0
468 -476 0
472 -468 476 0
-475 477 0
-476 477 0
475 476 -477 0
-373 -478 0
477 -478 0
373 -477 478 0
-471 479 0
-478 479 0
471 478 -479 0
480 -482 0
481 -482 0
-480 -481 482 0
480 -483 0
-481 -483 0
-480 481 483 0
-482 484 0
-483 484 0
482 483 -484 0
484 -486 0
485 -486 0
-484 -485 486 0
484 -487 0
-485 -487 0
-484 485 487 0
-486 488 0
-487 488 0
486 487 -488 0
488 -491 0
-489 -491 0
490 -491 0
-488 489 -490 491 0
488 -492 0
-489 -492 0
-490 -492 0
-488 489 490 492 0
488 -494 0
489 -494 0
493 -494 0
-488 -489 -493 494 0
488 -495 0
489 -495 0
-493 -495 0
-488 -489 493 495 0
-491 496 0
-492 496 0
-494 496 0
-495 496 0
491 492 494 495 -496 0
496 -498 0
497 -498 0
-496 -497 498 0
496 -499 0
-497 -499 0
-496 497 499 0
-498 500 0
-499 500 0
498 499 -500 0
500 -502 0
501 -502 0
-500 -501 502 0
500 -504 0
-501 -504 0
503 -504 0
-500 501 -503 504 0
500 -506 0
-501 -506 0
-503 -506 0
505 -506 0
-500 501 503 -505 506 0
500 -508 0
-501 -508 0
-503 -508 0
-505 -508 0
507 -508 0
-500 501 503 505 -507 508 0
500 -511 0
-501 -511 0
-503 -511 0
-505 -511 0
-507 -511 0
509 -511 0
510 -511 0
-500 501 503 505 507 -509 -510 511 0
500 -512 0
-501 -512 0
-503 -512 0
-505 -512 0
-507 -512 0
509 -512 0
-510 -512 0
-500 501 503 505 507 -509 510 512 0
-511 513 0
-512 513 0
511 512 -513 0
513 -515 0
514 -515 0
-513 -514 515 0
513 -516 0
-514 -516 0
-513 514 516 0
-515 517 0
-516 517 0
515 516 -517 0
517 -519 0
518 -519 0
-517 -518 519 0
500 -521 0
-501 -521 0
-503 -521 0
-505 -521 0
-507 -521 0
-509 -521 0
520 -521 0
-500 501 503 505 507 509 -520 521 0
500 -522 0
-501 -522 0
-503 -522 0
-505 -522 0
-507 -522 0
-509 -522 0
-520 -522 0
-500 501 503 505 507 509 520 522 0
-521 523 0
-522 523 0
521 522 -523 0
523 -525 0
524 -525 0
-523 -524 525 0
523 -526 0
-524 -526 0
-523 524 526 0
-525 527 0
-526 527 0
525 526 -527 0
527 -529 0
528 -529 0
-527 -528 529 0
517 -530 0
-518 -530 0
-517 518 530 0
527 -531 0
-528 -531 0
-527 528 531 0
-519 532 0
-529 532 0
-530 532 0
-531 532 0
519 529 530 531 -532 0
532 -534 0
-533 -534 0
-532 533 534 0
532 -536 0
533 -536 0
535 -536 0
-532 -533 -535 536 0
532 -537 0
533 -537 0
-535 -537 0
-532 -533 535 537 0
480 538 0
-502 538 0
-504 538 0
-506 538 0
-508 538 0
-534 538 0
-536 538 0
-537 538 0
-480 502 504 506 508 534 536 537 -538 0
-539 540 0
539 540 0
-542 543 0
542 543 0
541 -544 0
543 -544 0
-541 -543 544 0
541 545 0
-544 545 0
-541 544 -545 0
479 -546 0
538 -546 0
540 -546 0
545 -546 0
-479 -538 -540 -545 546 0
-383 547 0
383 547 0
377 -548 0
547 -548 0
-377 -547 548 0
-548 549 0
377 549 0
548 -377 -549 0
549 -550 0
-392 -550 0
-549 392 550 0
549 -551 0
398 -551 0
399 -551 0
-549 -398 -399 551 0
549 -552 0
398 -552 0
-399 -552 0
401 -552 0
434 -552 0
-436 -552 0
-549 -398 399 -401 -434 436 552 0
549 -553 0
398 -553 0
-399 -553 0
401 -553 0
434 -553 0
436 -553 0
-549 -398 399 -401 -434 -436 553 0
549 -554 0
398 -554 0
-399 -554 0
401 -554 0
-434 -554 0
-549 -398 399 -401 434 554 0
549 -555 0
402 -555 0
-549 -402 555 0
549 -556 0
-402 -556 0
-549 402 556 0
-555 557 0
-556 557 0
555 556 -557 0
-405 558 0
-407 558 0
-410 558 0
-412 558 0
-414 558 0
-416 558 0
-418 558 0
-420 558 0
405 407 410 412 414 416 418 420 -558 0
557 -559 0
558 -559 0
-557 -558 559 0
557 -560 0
403 -560 0
404 -560 0
-406 -560 0
408 -560 0
-409 -560 0
411 -560 0
-417 -560 0
-419 -560 0
430 -560 0
-557 -403 -404 406 -408 409 -411 417 419 -430 560 0
-424 561 0
-425 561 0
424 425 -561 0
557 -562 0
561 -562 0
-557 -561 562 0
-559 563 0
-560 563 0
-562 563 0
559 560 562 -563 0
563 -564 0
398 -564 0
-399 -564 0
-401 -564 0
432 -564 0
-563 -398 399 401 -432 564 0
-552 565 0
-553 565 0
-554 565 0
-564 565 0
552 553 554 564 -565 0
565 -566 0
439 -566 0
440 -566 0
-565 -439 -440 566 0
565 -567 0
439 -567 0
-440 -567 0
-565 -439 440 567 0
-551 568 0
-566 568 0
-567 568 0
551 566 567 -568 0
568 -569 0
392 -569 0
396 -569 0
443 -569 0
445 -569 0
446 -569 0
-568 -392 -396 -443 -445 -446 569 0
568 -570 0
392 -570 0
396 -570 0
443 -570 0
445 -570 0
-446 -570 0
449 -570 0
-568 -392 -396 -443 -445 446 -449 570 0
-569 571 0
-570 571 0
569 570 -571 0
-453 572 0
-454 572 0
453 454 -572 0
571 -573 0
572 -573 0
-571 -572 573 0
-550 574 0
-573 574 0
550 573 -574 0
376 -575 0
574 -575 0
-376 -574 575 0
-376 -576 0
549 -576 0
376 -549 576 0
-575 577 0
-576 577 0
575 576 -577 0
577 -578 0
-459 -578 0
-577 459 578 0
577 -579 0
459 -579 0
-577 -459 579 0
-578 580 0
-579 580 0
578 579 -580 0
375 -581 0
580 -581 0
-375 -580 581 0
-375 -582 0
577 -582 0
375 -577 582 0
-581 583 0
-582 583 0
581 582 -583 0
583 -584 0
-464 -584 0
-583 464 584 0
583 -585 0
464 -585 0
-583 -464 585 0
-584 586 0
-585 586 0
584 585 -586 0
374 -587 0
586 -587 0
-374 -586 587 0
-374 -588 0
583 -588 0
374 -583 588 0
-587 589 0
-588 589 0
587 588 -589 0
589 -590 0
-469 -590 0
-589 469 590 0
589 -591 0
469 -591 0
-589 -469 591 0
-590 592 0
-591 592 0
590 591 -592 0
373 -593 0
592 -593 0
-373 -592 593 0
589 -594 0
-473 -594 0
-589 473 594 0
589 -595 0
473 -595 0
-589 -473 595 0
-594 596 0
-595 596 0
594 595 -596 0
472 -597 0
596 -597 0
-472 -596 597 0
-472 -598 0
589 -598 0
472 -589 598 0
-597 599 0
-598 599 0
597 598 -599 0
-373 -600 0
599 -600 0
373 -599 600 0
-593 601 0
-600 601 0
593 600 -601 0
601 -602 0
-480 -602 0
-601 480 602 0
601 -603 0
480 -603 0
481 -603 0
-601 -480 -481 603 0
601 -604 0
480 -604 0
-481 -604 0
-601 -480 481 604 0
-603 605 0
-604 605 0
603 604 -605 0
605 -606 0
484 -606 0
485 -606 0
-605 -484 -485 606 0
605 -607 0
484 -607 0
-485 -607 0
-605 -484 485 607 0
-606 608 0
-607 608 0
606 607 -608 0
608 -609 0
496 -609 0
497 -609 0
-608 -496 -497 609 0
608 -610 0
496 -610 0
-497 -610 0
-608 -496 497 610 0
-609 611 0
-610 611 0
609 610 -611 0
-502 612 0
-504 612 0
-506 612 0
-508 612 0
502 504 506 508 -612 0
611 -613 0
612 -613 0
-611 -612 613 0
611 -614 0
500 -614 0
-501 -614 0
-503 -614 0
-505 -614 0
-507 -614 0
-509 -614 0
520 -614 0
-611 -500 501 503 505 507 509 -520 614 0
611 -615 0
500 -615 0
-501 -615 0
-503 -615 0
-505 -615 0
-507 -615 0
-509 -615 0
-520 -615 0
-611 -500 501 503 505 507 509 520 615 0
-614 616 0
-615 616 0
614 615 -616 0
616 -617 0
523 -617 0
524 -617 0
-616 -523 -524 617 0
616 -618 0
523 -618 0
-524 -618 0
-616 -523 524 618 0
-617 619 0
-618 619 0
617 618 -619 0
619 -620 0
527 -620 0
528 -620 0
-619 -527 -528 620 0
619 -621 0
527 -621 0
-528 -621 0
-619 -527 528 621 0
611 -622 0
500 -622 0
-501 -622 0
-503 -622 0
-505 -622 0
-507 -622 0
509 -622 0
510 -622 0
-611 -500 501 503 505 507 -509 -510 622 0
611 -623 0
500 -623 0
-501 -623 0
-503 -623 0
-505 -623 0
-507 -623 0
509 -623 0
-510 -623 0
-611 -500 501 503 505 507 -509 510 623 0
-622 624 0
-623 624 0
622 623 -624 0
624 -625 0
513 -625 0
514 -625 0
-624 -513 -514 625 0
624 -626 0
513 -626 0
-514 -626 0
-624 -513 514 626 0
-625 627 0
-626 627 0
625 626 -627 0
627 -628 0
517 -628 0
518 -628 0
-627 -517 -518 628 0
627 -629 0
517 -629 0
-518 -629 0
-627 -517 518 629 0
-620 630 0
-621 630 0
-628 630 0
-629 630 0
620 621 628 629 -630 0
-536 631 0
-537 631 0
536 537 -631 0
-534 632 0
-631 632 0
534 631 -632 0
630 -633 0
632 -633 0
-630 -632 633 0
-602 634 0
-613 634 0
-633 634 0
602 613 633 -634 0
634 -635 0
541 -635 0
543 -635 0
-634 -541 -543 635 0
634 -636 0
-541 -636 0
-634 541 636 0
-635 637 0
-636 637 0
635 636 -637 0
-383 638 0
383 638 0
377 -639 0
638 -639 0
-377 -638 639 0
-639 640 0
377 640 0
639 -377 -640 0
640 -641 0
-392 -641 0
-640 392 641 0
640 -642 0
398 -642 0
399 -642 0
-640 -398 -399 642 0
640 -643 0
398 -643 0
-399 -643 0
401 -643 0
434 -643 0
-436 -643 0
-640 -398 399 -401 -434 436 643 0
640 -644 0
398 -644 0
-399 -644 0
401 -644 0
434 -644 0
436 -644 0
-640 -398 399 -401 -434 -436 644 0
640 -645 0
398 -645 0
-399 -645 0
401 -645 0
-434 -645 0
-640 -398 399 -401 434 645 0
640 -646 0
402 -646 0
-640 -402 646 0
640 -647 0
-402 -647 0
-640 402 647 0
-646 648 0
-647 648 0
646 647 -648 0
-405 649 0
-407 649 0
-410 649 0
-412 649 0
-414 649 0
-416 649 0
-418 649 0
-420 649 0
405 407 410 412 414 416 418 420 -649 0
648 -650 0
649 -650 0
-648 -649 650 0
648 -651 0
403 -651 0
404 -651 0
-406 -651 0
408 -651 0
-409 -651 0
411 -651 0
-417 -651 0
-419 -651 0
430 -651 0
-648 -403 -404 406 -408 409 -411 417 419 -430 651 0
648 -652 0
561 -652 0
-648 -561 652 0
-650 653 0
-651 653 0
-652 653 0
650 651 652 -653 0
653 -654 0
398 -654 0
-399 -654 0
-401 -654 0
432 -654 0
-653 -398 399 401 -432 654 0
-643 655 0
-644 655 0
-645 655 0
-654 655 0
643 644 645 654 -655 0
655 -656 0
439 -656 0
440 -656 0
-655 -439 -440 656 0
655 -657 0
439 -657 0
-440 -657 0
-655 -439 440 657 0
-642 658 0
-656 658 0
-657 658 0
642 656 657 -658 0
658 -659 0
392 -659 0
396 -659 0
443 -659 0
445 -659 0
446 -659 0
-658 -392 -396 -443 -445 -446 659 0
658 -660 0
392 -660 0
396 -660 0
443 -660 0
445 -660 0
-446 -660 0
449 -660 0
-658 -392 -396 -443 -445 446 -449 660 0
-659 661 0
-660 661 0
659 660 -661 0
661 -662 0
572 -662 0
-661 -572 662 0
-641 663 0
-662 663 0
641 662 -663 0
376 -664 0
663 -664 0
-376 -663 664 0
-376 -665 0
640 -665 0
376 -640 665 0
-664 666 0
-665 666 0
664 665 -666 0
666 -667 0
-459 -667 0
-666 459 667 0
666 -668 0
459 -668 0
-666 -459 668 0
-667 669 0
-668 669 0
667 668 -669 0
375 -670 0
669 -670 0
-375 -669 670 0
-375 -671 0
666 -671 0
375 -666 671 0
-670 672 0
-671 672 0
670 671 -672 0
672 -673 0
-464 -673 0
-672 464 673 0
672 -674 0
464 -674 0
-672 -464 674 0
-673 675 0
-674 675 0
673 674 -675 0
374 -676 0
675 -676 0
-374 -675 676 0
-374 -677 0
672 -677 0
374 -672 677 0
-676 678 0
-677 678 0
676 677 -678 0
678 -679 0
-469 -679 0
-678 469 679 0
678 -680 0
469 -680 0
-678 -469 680 0
-679 681 0
-680 681 0
679 680 -681 0
373 -682 0
681 -682 0
-373 -681 682 0
678 -683 0
-473 -683 0
-678 473 683 0
678 -684 0
473 -684 0
-678 -473 684 0
-683 685 0
-684 685 0
683 684 -685 0
472 -686 0
685 -686 0
-472 -685 686 0
-472 -687 0
678 -687 0
472 -678 687 0
-686 688 0
-687 688 0
686 687 -688 0
-373 -689 0
688 -689 0
373 -688 689 0
-682 690 0
-689 690 0
682 689 -690 0
690 -691 0
-480 -691 0
-690 480 691 0
690 -692 0
480 -692 0
481 -692 0
-690 -480 -481 692 0
690 -693 0
480 -693 0
-481 -693 0
-690 -480 481 693 0
-692 694 0
-693 694 0
692 693 -694 0
694 -695 0
484 -695 0
485 -695 0
-694 -484 -485 695 0
694 -696 0
484 -696 0
-485 -696 0
-694 -484 485 696 0
-695 697 0
-696 697 0
695 696 -697 0
697 -698 0
496 -698 0
497 -698 0
-697 -496 -497 698 0
697 -699 0
496 -699 0
-497 -699 0
-697 -496 497 699 0
-698 700 0
-699 700 0
698 699 -700 0
-502 701 0
-504 701 0
-506 701 0
-508 701 0
502 504 506 508 -701 0
700 -702 0
701 -702 0
-700 -701 702 0
700 -703 0
500 -703 0
-501 -703 0
-503 -703 0
-505 -703 0
-507 -703 0
-509 -703 0
520 -703 0
-700 -500 501 503 505 507 509 -520 703 0
700 -704 0
500 -704 0
-501 -704 0
-503 -704 0
-505 -704 0
-507 -704 0
-509 -704 0
-520 -704 0
-700 -500 501 503 505 507 509 520 704 0
-703 705 0
-704 705 0
703 704 -705 0
705 -706 0
523 -706 0
524 -706 0
-705 -523 -524 706 0
705 -707 0
523 -707 0
-524 -707 0
-705 -523 524 707 0
-706 708 0
-707 708 0
706 707 -708 0
708 -709 0
527 -709 0
528 -709 0
-708 -527 -528 709 0
708 -710 0
527 -710 0
-528 -710 0
-708 -527 528 710 0
700 -711 0
500 -711 0
-501 -711 0
-503 -711 0
-505 -711 0
-507 -711 0
509 -711 0
510 -711 0
-700 -500 501 503 505 507 -509 -510 711 0
700 -712 0
500 -712 0
-501 -712 0
-503 -712 0
-505 -712 0
-507 -712 0
509 -712 0
-510 -712 0
-700 -500 501 503 505 507 -509 510 712 0
-711 713 0
-712 713 0
711 712 -713 0
713 -714 0
513 -714 0
514 -714 0
-713 -513 -514 714 0
713 -715 0
513 -715 0
-514 -715 0
-713 -513 514 715 0
-714 716 0
-715 716 0
714 715 -716 0
716 -717 0
517 -717 0
518 -717 0
-716 -517 -518 717 0
716 -718 0
517 -718 0
-518 -718 0
-716 -517 518 718 0
-709 719 0
-710 719 0
-717 719 0
-718 719 0
709 710 717 718 -719 0
-534 720 0
-631 720 0
534 631 -720 0
719 -721 0
720 -721 0
-719 -720 721 0
-691 722 0
-702 722 0
-721 722 0
691 702 721 -722 0
722 -723 0
541 -723 0
543 -723 0
-722 -541 -543 723 0
722 -724 0
-541 -724 0
-722 541 724 0
-723 725 0
-724 725 0
723 724 -725 0
-637 -281 -726 0
637 281 -726 0
-637 281 726 0
637 -281 726 0
-725 -372 -727 0
725 372 -727 0
-725 372 727 0
725 -372 727 0
-726 -728 0
-727 -728 0
546 -728 0
726 727 -546 728 0
-186 728 0
